p wcnf 9 21 115
115 1 2 0
115 1 4 0
115 1 5 0
115 1 7 0
115 2 4 0
115 2 6 0
115 2 7 0
115 3 4 0
115 3 9 0
115 5 6 0
115 5 9 0
115 7 9 0
6 -1 0
6 -2 0
8 -3 0
7 -4 0
7 -5 0
8 -6 0
7 -7 0
10 -8 0
7 -9 0
